Route #1: 3 7 30 84 51 39 8 15 42 67 100 102 14 135 33 86 81 71 91 98
Route #2: 20 45 109 110 35 58 13 97 31 80 41 78 92 107 132 93 130 127 64 133 75 120 73 121 79 54
Route #3: 76 111 105 82 106 77 43 46 55 18 1 21 103 28 63 138 122 56
Route #4: 10 74 50 123 27 115 34 131 38 69 94 108 22 112 25 125 36 129 53 96 5 6 113 90 12 117 72 44 57
Route #5: 124 88 70 62 4 23 26 9 137 114 85 24 126 52 95 118 32 16
Route #6: 89 104 136 83 68 116 101 11 128 119 47 17 37 40 134 59 60 65 48 61 19 66 49 2 99 87 29
Cost 11278.000000